(set-info :origin "SVCOMP13 benchmarks generated by Arie Gurfinkel")
(set-info :status unsat)
(set-logic HORN)
(declare-fun cp-rel-entry () Bool)
(declare-fun cp-rel-UnifiedReturnBlock () Bool)
(declare-fun cp-rel-__UFO__0
             (Real
              Real
              Real
              Real
              Real
              Real
              Real
              Real
              Real
              Real
              Real
              Real
              Real
              Real
              Real
              Real
              Real
              Real
              Real
              Real)
             Bool)
(declare-fun cp-rel-bb.i
             (Real
              Real
              Real
              Real
              Real
              Real
              Real
              Real
              Real
              Real
              Real
              Real
              Real
              Real
              Real
              Real
              Real
              Real
              Real)
             Bool)
(assert |cp-rel-entry|)
(assert (forall ((?A Real) (?B Real) (?C Real) (?D Real) (?E Real) (?F Real) (?G Real) (?H Real) (?I Real) (?J Real) (?K Real) (?L Real) (?M Real) (?N Real) (?O Real) (?P Real) (?Q Real) (?R Real) (?S Real) (?T Bool) )(let (($x776997 (|cp-rel-bb.i| ?A ?B ?C ?D ?E ?F ?G ?H ?I ?J ?K ?L ?M ?N ?O ?P ?Q ?R ?S)))
(let (($x568457 (= ?T true)))
(let (($x50479 (and |cp-rel-entry| (<= ?S 0.0) (>= ?R 0.0) (<= ?R 0.0) (>= ?Q 0.0) (<= ?Q 0.0) (>= ?P 0.0) (<= ?P 0.0) (>= ?O 456.0) (<= ?O 456.0) (>= ?N 123.0) (<= ?N 123.0) (>= ?M 0.0) (<= ?M 0.0) (>= ?L 0.0) (<= ?L 0.0) (>= ?K 0.0) (<= ?K 0.0) (>= ?J 0.0) (<= ?J 0.0) (>= ?I 0.0) (<= ?I 0.0) (>= ?H 0.0) (<= ?H 0.0) (>= ?G 0.0) (<= ?G 0.0) (>= ?F 0.0) (<= ?F 0.0) (>= ?E 0.0) (<= ?E 0.0) (>= ?D 0.0) (<= ?D 0.0) (>= ?C 0.0) (<= ?C 0.0) (>= ?B 0.0) (<= ?B 0.0) (>= ?A 0.0) (<= ?A 0.0) $x568457 (>= ?S 0.0))))
(=> $x50479 $x776997)))))
)
(assert (forall ((?A Real) (?B Real) (?C Real) (?D Real) (?E Real) (?F Real) (?G Real) (?H Real) (?I Real) (?J Real) (?K Real) (?L Real) (?M Real) (?N Real) (?O Real) (?P Real) (?Q Real) (?R Real) (?S Real) (?T Real) (?U Real) (?V Real) (?W Real) (?X Real) (?Y Real) (?Z Real) (?A1 Real) (?B1 Real) (?C1 Real) (?D1 Real) (?E1 Real) (?F1 Real) (?G1 Real) (?H1 Real) (?I1 Real) (?J1 Real) (?K1 Real) (?L1 Real) (?M1 Bool) (?N1 Bool) (?O1 Bool) (?P1 Bool) (?Q1 Bool) (?R1 Bool) (?S1 Bool) (?T1 Bool) (?U1 Bool) (?V1 Bool) (?W1 Bool) (?X1 Bool) (?Y1 Bool) (?Z1 Bool) (?A2 Bool) (?B2 Bool) (?C2 Bool) (?D2 Bool) (?E2 Bool) (?F2 Bool) (?G2 Bool) (?H2 Bool) (?I2 Bool) (?J2 Bool) (?K2 Bool) (?L2 Bool) (?M2 Bool) (?N2 Bool) (?O2 Bool) (?P2 Bool) (?Q2 Bool) (?R2 Bool) (?S2 Bool) (?T2 Bool) (?U2 Bool) (?V2 Bool) (?W2 Bool) (?X2 Bool) (?Y2 Bool) (?Z2 Bool) (?A3 Bool) (?B3 Bool) (?C3 Bool) (?D3 Bool) (?E3 Bool) (?F3 Bool) (?G3 Bool) (?H3 Bool) (?I3 Bool) (?J3 Bool) (?K3 Bool) (?L3 Bool) (?M3 Bool) (?N3 Bool) (?O3 Bool) (?P3 Bool) (?Q3 Bool) (?R3 Bool) (?S3 Bool) (?T3 Bool) (?U3 Bool) (?V3 Bool) (?W3 Bool) (?X3 Bool) (?Y3 Bool) (?Z3 Bool) (?A4 Bool) (?B4 Bool) (?C4 Bool) (?D4 Bool) (?E4 Bool) (?F4 Bool) (?G4 Bool) (?H4 Bool) (?I4 Bool) (?J4 Bool) (?K4 Bool) (?L4 Bool) (?M4 Bool) (?N4 Bool) (?O4 Real) (?P4 Real) (?Q4 Real) (?R4 Real) (?S4 Real) (?T4 Real) (?U4 Real) (?V4 Real) (?W4 Real) (?X4 Real) (?Y4 Real) (?Z4 Real) )(let (($x255141 (|cp-rel-bb.i| ?T ?U ?V ?W ?X ?Y ?Z ?A1 ?B1 ?C1 ?D1 ?E1 ?F1 ?G1 ?H1 ?I1 ?J1 ?K1 ?L1)))
(let (($x572083 (not ?K4)))
(let (($x410878 (or $x572083 ?L4)))
(let (($x346964 (>= ?L1 ?S)))
(let (($x644906 (<= ?L1 ?S)))
(let (($x612397 (>= ?J1 ?Q)))
(let (($x514010 (<= ?J1 ?Q)))
(let (($x155608 (>= ?H1 ?O)))
(let (($x620227 (<= ?H1 ?O)))
(let (($x209687 (>= ?G1 ?N)))
(let (($x572199 (<= ?G1 ?N)))
(let (($x137170 (>= ?F1 ?M)))
(let (($x110638 (<= ?F1 ?M)))
(let (($x595969 (>= ?D1 ?K)))
(let (($x582294 (<= ?D1 ?K)))
(let (($x520182 (>= ?C1 ?J)))
(let (($x108332 (<= ?C1 ?J)))
(let (($x495630 (>= ?B1 ?I)))
(let (($x495001 (<= ?B1 ?I)))
(let (($x254017 (>= ?A1 ?H)))
(let (($x70798 (<= ?A1 ?H)))
(let (($x576719 (>= ?Z ?G)))
(let (($x496029 (<= ?Z ?G)))
(let (($x877878 (>= ?Y ?F)))
(let (($x611667 (<= ?Y ?F)))
(let (($x848688 (>= ?X ?E)))
(let (($x263537 (<= ?X ?E)))
(let (($x71607 (>= ?W ?D)))
(let (($x65861 (<= ?W ?D)))
(let (($x565606 (>= ?V ?C)))
(let (($x699150 (<= ?V ?C)))
(let (($x631207 (>= ?U ?B)))
(let (($x287406 (<= ?U ?B)))
(let (($x430972 (>= ?T ?O4)))
(let (($x637700 (<= ?T ?O4)))
(let (($x922092 (and ?X1 $x637700 $x430972 $x287406 $x631207 $x699150 $x565606 $x65861 $x71607 $x263537 $x848688 $x611667 $x877878 $x496029 $x576719 $x70798 $x254017 $x495001 $x495630 $x108332 $x520182 $x582294 $x595969 (<= ?E1 1.0) (>= ?E1 1.0) $x110638 $x137170 $x572199 $x209687 $x620227 $x155608 (<= ?I1 2.0) (>= ?I1 2.0) $x514010 $x612397 (<= ?K1 456.0) (>= ?K1 456.0) $x644906 $x346964)))
(let (($x610863 (>= ?K1 ?R)))
(let (($x347468 (<= ?K1 ?R)))
(let (($x889809 (>= ?I1 ?P)))
(let (($x301430 (<= ?I1 ?P)))
(let (($x8132 (>= ?E1 ?L)))
(let (($x890228 (<= ?E1 ?L)))
(let (($x479095 (not ?E2)))
(let (($x523173 (and ?Z1 $x479095 $x637700 $x430972 $x287406 $x631207 $x699150 $x565606 $x65861 $x71607 $x263537 $x848688 $x611667 $x877878 $x496029 $x576719 $x70798 $x254017 $x495001 $x495630 $x108332 $x520182 (<= ?D1 1.0) (>= ?D1 1.0) $x890228 $x8132 (<= ?F1 1.0) (>= ?F1 1.0) $x572199 $x209687 $x620227 $x155608 $x301430 $x889809 $x514010 $x612397 $x347468 $x610863 $x644906 $x346964)))
(let (($x486278 (not ?L2)))
(let (($x610735 (and ?G2 $x486278 $x637700 $x430972 $x287406 $x631207 $x699150 $x565606 $x65861 $x71607 $x263537 $x848688 $x611667 $x877878 $x496029 $x576719 $x70798 $x254017 $x495001 $x495630 (<= ?C1 1.0) (>= ?C1 1.0) $x582294 $x595969 $x890228 $x8132 $x110638 $x137170 $x572199 $x209687 (<= ?H1 0.0) (>= ?H1 0.0) $x301430 $x889809 $x514010 $x612397 $x347468 $x610863 $x644906 $x346964)))
(let (($x97093 (not ?S2)))
(let (($x179093 (and ?N2 $x97093 $x637700 $x430972 $x287406 $x631207 $x699150 $x565606 $x65861 $x71607 $x263537 $x848688 $x611667 $x877878 $x496029 $x576719 $x70798 $x254017 (<= ?B1 1.0) (>= ?B1 1.0) $x108332 $x520182 $x582294 $x595969 $x890228 $x8132 $x110638 $x137170 $x572199 $x209687 $x620227 $x155608 $x301430 $x889809 (<= ?J1 1.0) (>= ?J1 1.0) $x347468 $x610863 (<= ?L1 123.0) (>= ?L1 123.0))))
(let (($x204902 (not ?Z2)))
(let (($x575215 (and ?U2 $x204902 $x637700 $x430972 $x287406 $x631207 $x699150 $x565606 $x65861 $x71607 $x263537 $x848688 $x611667 $x877878 $x496029 $x576719 (<= ?A1 1.0) (>= ?A1 1.0) $x495001 $x495630 $x108332 $x520182 $x582294 $x595969 $x890228 $x8132 $x110638 $x137170 $x572199 $x209687 $x620227 $x155608 $x301430 $x889809 $x514010 $x612397 $x347468 $x610863 $x644906 $x346964)))
(let (($x368039 (and ?B3 (not ?G3) $x637700 $x430972 $x287406 $x631207 $x699150 $x565606 $x65861 $x71607 $x263537 $x848688 $x611667 $x877878 (<= ?Z 1.0) (>= ?Z 1.0) $x70798 $x254017 $x495001 $x495630 $x108332 $x520182 $x582294 $x595969 $x890228 $x8132 $x110638 $x137170 $x572199 $x209687 $x620227 $x155608 $x301430 $x889809 $x514010 $x612397 $x347468 $x610863 $x644906 $x346964)))
(let (($x459396 (and ?I3 (not ?N3) $x637700 $x430972 $x287406 $x631207 $x699150 $x565606 $x65861 $x71607 $x263537 $x848688 (<= ?Y 1.0) (>= ?Y 1.0) $x496029 $x576719 $x70798 $x254017 $x495001 $x495630 $x108332 $x520182 $x582294 $x595969 $x890228 $x8132 $x110638 $x137170 $x572199 $x209687 (<= ?H1 666.0) (>= ?H1 666.0) $x301430 $x889809 $x514010 $x612397 $x347468 $x610863 $x644906 $x346964)))
(let (($x75332 (not ?U3)))
(let (($x255026 (and ?P3 $x75332 $x637700 $x430972 $x287406 $x631207 $x699150 $x565606 $x65861 $x71607 (<= ?X 1.0) (>= ?X 1.0) $x611667 $x877878 $x496029 $x576719 $x70798 $x254017 $x495001 $x495630 $x108332 $x520182 $x582294 $x595969 $x890228 $x8132 $x110638 $x137170 $x572199 $x209687 $x620227 $x155608 $x301430 $x889809 $x514010 $x612397 $x347468 $x610863 $x644906 $x346964)))
(let (($x255077 (not ?B4)))
(let (($x610134 (and ?W3 $x255077 $x637700 $x430972 $x287406 $x631207 $x699150 $x565606 (<= ?W 1.0) (>= ?W 1.0) $x263537 $x848688 $x611667 $x877878 $x496029 $x576719 $x70798 $x254017 $x495001 $x495630 $x108332 $x520182 $x582294 $x595969 $x890228 $x8132 $x110638 $x137170 $x572199 $x209687 $x620227 $x155608 $x301430 $x889809 $x514010 $x612397 $x347468 $x610863 $x644906 $x346964)))
(let (($x631239 (and ?D4 (not ?I4) $x637700 $x430972 $x287406 $x631207 (<= ?V 1.0) (>= ?V 1.0) $x65861 $x71607 $x263537 $x848688 $x611667 $x877878 $x496029 $x576719 $x70798 $x254017 $x495001 $x495630 $x108332 $x520182 $x582294 $x595969 $x890228 $x8132 $x110638 $x137170 (<= ?G1 777.0) (>= ?G1 777.0) $x620227 $x155608 $x301430 $x889809 $x514010 $x612397 $x347468 $x610863 $x644906 $x346964)))
(let (($x810442 (not ?N4)))
(let (($x903390 (and ?K4 $x810442 $x637700 $x430972 (<= ?U 1.0) (>= ?U 1.0) $x699150 $x565606 $x65861 $x71607 $x263537 $x848688 $x611667 $x877878 $x496029 $x576719 $x70798 $x254017 $x495001 $x495630 $x108332 $x520182 $x582294 $x595969 $x890228 $x8132 $x110638 $x137170 $x572199 $x209687 $x620227 $x155608 $x301430 $x889809 $x514010 $x612397 $x347468 $x610863 $x644906 $x346964)))
(let (($x391122 (|cp-rel-bb.i| ?A ?B ?C ?D ?E ?F ?G ?H ?I ?J ?K ?L ?M ?N ?O ?P ?Q ?R ?S)))
(let (($x265693 (and $x391122 (= ?M4 (= ?B 0.0)) (= ?I4 (= ?Y4 0.0)) (= ?F4 (= ?C 0.0)) (= ?B4 (= ?X4 0.0)) (= ?Y3 (= ?D 0.0)) (= ?U3 (= ?W4 0.0)) (= ?R3 (= ?E 0.0)) (= ?N3 (= ?V4 0.0)) (= ?K3 (= ?F 0.0)) (= ?G3 (= ?U4 0.0)) (= ?D3 (= ?G 0.0)) (= ?Z2 (= ?T4 0.0)) (= ?W2 (= ?H 0.0)) (= ?S2 (= ?S4 0.0)) (= ?P2 (= ?I 0.0)) (= ?L2 (= ?R4 0.0)) (= ?I2 (= ?J 0.0)) (= ?E2 (= ?Q4 0.0)) (= ?B2 (= ?K 0.0)) (= ?V1 (= ?P4 0.0)) (= ?S1 (= ?L 0.0)) (= ?O4 (+ 1.0 ?A)) (= ?P1 (not (<= ?A 3.0))) (or $x903390 $x631239 $x610134 $x255026 $x459396 $x368039 $x575215 $x179093 $x610735 $x523173 $x922092) $x410878 (or $x572083 (and ?G4 ?L4 ?M4)) (or (not ?G4) (and ?H4 (not ?J4)) (and ?J4 (not ?H4))) (or (not ?G4) (and ?D4 ?H4 ?I4) (and ?Z3 ?J4 (not ?F4))) (or (not ?D4) ?E4) (or (not ?D4) (and ?Z3 ?E4 ?F4)) (or (not ?Z3) (and ?A4 (not ?C4)) (and ?C4 (not ?A4))) (or (not ?Z3) (and ?W3 ?A4 ?B4) (and ?S3 ?C4 (not ?Y3))) (or (not ?W3) ?X3) (or (not ?W3) (and ?S3 ?X3 ?Y3)) (or (not ?S3) (and ?T3 (not ?V3)) (and ?V3 (not ?T3))) (or (not ?S3) (and ?P3 ?T3 ?U3) (and ?L3 ?V3 (not ?R3))) (or (not ?P3) ?Q3) (or (not ?P3) (and ?L3 ?Q3 ?R3)) (or (not ?L3) (and ?M3 (not ?O3)) (and ?O3 (not ?M3))) (or (not ?L3) (and ?I3 ?M3 ?N3) (and ?E3 ?O3 (not ?K3))) (or (not ?I3) ?J3) (or (not ?I3) (and ?E3 ?J3 ?K3)) (or (not ?E3) (and ?F3 (not ?H3)) (and ?H3 (not ?F3))) (or (not ?E3) (and ?B3 ?F3 ?G3) (and ?X2 ?H3 (not ?D3))) (or (not ?B3) ?C3) (or (not ?B3) (and ?X2 ?C3 ?D3)) (or (not ?X2) (and ?Y2 (not ?A3)) (and ?A3 (not ?Y2))) (or (not ?X2) (and ?U2 ?Y2 ?Z2) (and ?Q2 ?A3 (not ?W2))) (or (not ?U2) ?V2) (or (not ?U2) (and ?Q2 ?V2 ?W2)) (or (not ?Q2) (and ?R2 (not ?T2)) (and ?T2 (not ?R2))) (or (not ?Q2) (and ?N2 ?R2 ?S2) (and ?J2 ?T2 (not ?P2))) (or (not ?N2) ?O2) (or (not ?N2) (and ?J2 ?O2 ?P2)) (or (not ?J2) (and ?K2 (not ?M2)) (and ?M2 (not ?K2))) (or (not ?J2) (and ?G2 ?K2 ?L2) (and ?C2 ?M2 (not ?I2))) (or (not ?G2) ?H2) (or (not ?G2) (and ?C2 ?H2 ?I2)) (or (not ?C2) (and ?D2 (not ?F2)) (and ?F2 (not ?D2))) (or (not ?C2) (and ?Z1 ?D2 ?E2) (and ?T1 ?F2 (not ?B2))) (or (not ?Z1) ?A2) (or (not ?Z1) (and ?T1 ?A2 ?B2)) (or (not ?X1) ?Y1) (or (not ?X1) (and ?Q1 ?Y1 (not ?V1))) (or (not ?T1) (and ?U1 (not ?W1)) (and ?W1 (not ?U1))) (or (not ?T1) (and ?Q1 ?U1 ?V1) (and ?M1 ?W1 (not ?S1))) (or (not ?Q1) ?R1) (or (not ?Q1) (and ?M1 ?R1 ?S1)) (or (not ?M1) ?O1) (or (not ?M1) (and ?N1 ?O1 (not ?P1))) (= ?N4 (= ?Z4 0.0)))))
(=> $x265693 $x255141)))))))))))))))))))))))))))))))))))))))))))))))))))))))))))))))
)
(assert (forall ((?A Real) (?B Real) (?C Real) (?D Real) (?E Real) (?F Real) (?G Real) (?H Real) (?I Real) (?J Real) (?K Real) (?L Real) (?M Real) (?N Real) (?O Real) (?P Real) (?Q Real) (?R Real) (?S Real) (?T Bool) (?U Bool) (?V Bool) (?W Bool) (?X Bool) (?Y Bool) (?Z Bool) (?A1 Bool) (?B1 Bool) (?C1 Bool) (?D1 Bool) (?E1 Bool) (?F1 Bool) (?G1 Bool) (?H1 Bool) (?I1 Bool) (?J1 Bool) (?K1 Bool) (?L1 Bool) (?M1 Bool) (?N1 Bool) (?O1 Bool) (?P1 Bool) (?Q1 Bool) (?R1 Bool) (?S1 Bool) (?T1 Bool) (?U1 Bool) (?V1 Bool) (?W1 Bool) (?X1 Bool) (?Y1 Bool) (?Z1 Bool) (?A2 Bool) (?B2 Bool) (?C2 Bool) (?D2 Bool) (?E2 Bool) (?F2 Bool) (?G2 Bool) (?H2 Bool) (?I2 Bool) (?J2 Bool) (?K2 Bool) (?L2 Bool) (?M2 Bool) (?N2 Bool) (?O2 Bool) (?P2 Bool) (?Q2 Bool) (?R2 Bool) (?S2 Bool) (?T2 Bool) (?U2 Bool) (?V2 Bool) (?W2 Bool) (?X2 Bool) (?Y2 Bool) (?Z2 Bool) (?A3 Bool) (?B3 Bool) (?C3 Bool) (?D3 Bool) (?E3 Bool) (?F3 Bool) (?G3 Bool) (?H3 Bool) (?I3 Bool) (?J3 Bool) (?K3 Bool) (?L3 Bool) (?M3 Bool) (?N3 Bool) (?O3 Bool) (?P3 Bool) (?Q3 Bool) (?R3 Bool) (?S3 Bool) (?T3 Real) (?U3 Real) (?V3 Real) (?W3 Real) (?X3 Real) (?Y3 Real) (?Z3 Real) (?A4 Real) (?B4 Real) (?C4 Real) (?D4 Real) (?E4 Real) (?F4 Real) (?G4 Bool) (?H4 Bool) (?I4 Bool) (?J4 Bool) (?K4 Bool) (?L4 Bool) (?M4 Bool) (?N4 Bool) (?O4 Bool) (?P4 Bool) (?Q4 Bool) (?R4 Bool) (?S4 Bool) (?T4 Bool) (?U4 Bool) (?V4 Bool) (?W4 Bool) (?X4 Bool) (?Y4 Bool) (?Z4 Bool) (?A5 Bool) (?B5 Bool) (?C5 Bool) (?D5 Bool) (?E5 Bool) (?F5 Bool) (?G5 Bool) (?H5 Real) (?I5 Bool) (?J5 Bool) (?K5 Bool) (?L5 Bool) )(let (($x461657 (|cp-rel-__UFO__0| ?A ?B ?C ?D ?E ?F ?G ?H ?I ?J ?K ?L ?M ?N ?O ?P ?Q ?R ?S ?F4)))
(let (($x75332 (not ?G4)))
(let (($x595978 (or $x75332 (and ?P3 ?H4 ?S3) (and ?L3 ?I4 (not ?R3)) (and ?U ?J4 ?W))))
(let (($x851198 (or $x75332 (and ?H4 (not ?I4) (not ?J4)) (and ?I4 (not ?H4) (not ?J4)) (and ?J4 (not ?H4) (not ?I4)))))
(let (($x572083 (not ?W4)))
(let (($x410878 (or $x572083 ?X4)))
(let (($x879520 (= ?K5 (= ?H5 0.0))))
(let (($x865353 (|cp-rel-bb.i| ?A ?B ?C ?D ?E ?F ?G ?H ?I ?J ?K ?L ?M ?N ?O ?P ?Q ?R ?S)))
(let (($x568328 (and $x865353 (= ?Y4 (or ?L5 ?K5)) (= ?L5 (not (= ?R ?H5))) $x879520 (= ?V4 (or ?J5 ?I5)) (= ?J5 (= ?R 0.0)) (= ?I5 (not (= ?P 2.0))) (= ?H5 (ite ?G5 ?N ?O)) (= ?G5 (= ?O 0.0)) (= ?S4 (= ?M 0.0)) (= ?P4 (= ?F4 ?N)) (= ?M4 (= ?F4 0.0)) (= ?F4 (ite ?F5 ?S 0.0)) (= ?F5 (= ?Q 1.0)) (= ?S3 (= ?E4 0.0)) (= ?R3 (= ?B 0.0)) (= ?N3 (= ?D4 0.0)) (= ?K3 (= ?C 0.0)) (= ?G3 (= ?C4 0.0)) (= ?D3 (= ?D 0.0)) (= ?Z2 (= ?B4 0.0)) (= ?W2 (= ?E 0.0)) (= ?S2 (= ?A4 0.0)) (= ?P2 (= ?F 0.0)) (= ?L2 (= ?Z3 0.0)) (= ?I2 (= ?G 0.0)) (= ?E2 (= ?Y3 0.0)) (= ?B2 (= ?H 0.0)) (= ?X1 (= ?X3 0.0)) (= ?U1 (= ?I 0.0)) (= ?Q1 (= ?W3 0.0)) (= ?N1 (= ?J 0.0)) (= ?J1 (= ?V3 0.0)) (= ?G1 (= ?K 0.0)) (= ?C1 (= ?U3 0.0)) (= ?Z (= ?L 0.0)) (= ?T3 (+ 1.0 ?A)) (= ?W (not (<= ?A 3.0))) (or ?C5 (and ?N4 ?S4)) (or (not ?C5) (and ?D5 (not ?E5)) (and ?E5 (not ?D5))) (or (not ?C5) (and ?Z4 ?D5) (and ?W4 ?E5 (not ?B5))) (or (not ?Z4) ?A5) (or (not ?Z4) (and ?W4 ?A5 ?B5)) $x410878 (or $x572083 (and ?T4 ?X4 (not ?Y4))) (or (not ?T4) ?U4) (or (not ?T4) (and ?Q4 ?U4 (not ?V4))) (or (not ?Q4) ?R4) (or (not ?Q4) (and ?N4 ?R4 (not ?S4))) (or (not ?N4) ?O4) (or (not ?N4) (and ?K4 ?O4 ?P4)) (or (not ?K4) ?L4) (or (not ?K4) (and ?G4 ?L4 (not ?M4))) $x851198 $x595978 (or (not ?P3) ?Q3) (or (not ?P3) (and ?L3 ?Q3 ?R3)) (or (not ?L3) (and ?M3 (not ?O3)) (and ?O3 (not ?M3))) (or (not ?L3) (and ?I3 ?M3 ?N3) (and ?E3 ?O3 (not ?K3))) (or (not ?I3) ?J3) (or (not ?I3) (and ?E3 ?J3 ?K3)) (or (not ?E3) (and ?F3 (not ?H3)) (and ?H3 (not ?F3))) (or (not ?E3) (and ?B3 ?F3 ?G3) (and ?X2 ?H3 (not ?D3))) (or (not ?B3) ?C3) (or (not ?B3) (and ?X2 ?C3 ?D3)) (or (not ?X2) (and ?Y2 (not ?A3)) (and ?A3 (not ?Y2))) (or (not ?X2) (and ?U2 ?Y2 ?Z2) (and ?Q2 ?A3 (not ?W2))) (or (not ?U2) ?V2) (or (not ?U2) (and ?Q2 ?V2 ?W2)) (or (not ?Q2) (and ?R2 (not ?T2)) (and ?T2 (not ?R2))) (or (not ?Q2) (and ?N2 ?R2 ?S2) (and ?J2 ?T2 (not ?P2))) (or (not ?N2) ?O2) (or (not ?N2) (and ?J2 ?O2 ?P2)) (or (not ?J2) (and ?K2 (not ?M2)) (and ?M2 (not ?K2))) (or (not ?J2) (and ?G2 ?K2 ?L2) (and ?C2 ?M2 (not ?I2))) (or (not ?G2) ?H2) (or (not ?G2) (and ?C2 ?H2 ?I2)) (or (not ?C2) (and ?D2 (not ?F2)) (and ?F2 (not ?D2))) (or (not ?C2) (and ?Z1 ?D2 ?E2) (and ?V1 ?F2 (not ?B2))) (or (not ?Z1) ?A2) (or (not ?Z1) (and ?V1 ?A2 ?B2)) (or (not ?V1) (and ?W1 (not ?Y1)) (and ?Y1 (not ?W1))) (or (not ?V1) (and ?S1 ?W1 ?X1) (and ?O1 ?Y1 (not ?U1))) (or (not ?S1) ?T1) (or (not ?S1) (and ?O1 ?T1 ?U1)) (or (not ?O1) (and ?P1 (not ?R1)) (and ?R1 (not ?P1))) (or (not ?O1) (and ?L1 ?P1 ?Q1) (and ?H1 ?R1 (not ?N1))) (or (not ?L1) ?M1) (or (not ?L1) (and ?H1 ?M1 ?N1)) (or (not ?H1) (and ?I1 (not ?K1)) (and ?K1 (not ?I1))) (or (not ?H1) (and ?E1 ?I1 ?J1) (and ?A1 ?K1 (not ?G1))) (or (not ?E1) ?F1) (or (not ?E1) (and ?A1 ?F1 ?G1)) (or (not ?A1) (and ?B1 (not ?D1)) (and ?D1 (not ?B1))) (or (not ?A1) (and ?X ?B1 ?C1) (and ?T ?D1 (not ?Z))) (or (not ?X) ?Y) (or (not ?X) (and ?T ?Y ?Z)) (or (not ?T) ?V) (or (not ?T) (and ?U ?V (not ?W))) (= ?B5 (= ?P 2.0)))))
(=> $x568328 $x461657)))))))))))
)
(assert (forall ((?A Real) (?B Real) (?C Real) (?D Real) (?E Real) (?F Real) (?G Real) (?H Real) (?I Real) (?J Real) (?K Real) (?L Real) (?M Real) (?N Real) (?O Real) (?P Real) (?Q Real) (?R Real) (?S Real) (?T Real) (?U Bool) )(let (($x777297 (|cp-rel-__UFO__0| ?B ?C ?D ?E ?F ?G ?H ?I ?J ?K ?L ?M ?N ?O ?P ?Q ?R ?S ?T ?A)))
(=> (and $x777297 (= ?U true)) $x777297)))
)
(assert (forall ((?A Real) (?B Real) (?C Real) (?D Real) (?E Real) (?F Real) (?G Real) (?H Real) (?I Real) (?J Real) (?K Real) (?L Real) (?M Real) (?N Real) (?O Real) (?P Real) (?Q Real) (?R Real) (?S Real) (?T Bool) (?U Bool) (?V Bool) (?W Bool) (?X Bool) (?Y Bool) (?Z Bool) (?A1 Bool) (?B1 Bool) (?C1 Bool) (?D1 Bool) (?E1 Bool) (?F1 Bool) (?G1 Bool) (?H1 Bool) (?I1 Bool) (?J1 Bool) (?K1 Bool) (?L1 Bool) (?M1 Bool) (?N1 Bool) (?O1 Bool) (?P1 Bool) (?Q1 Bool) (?R1 Bool) (?S1 Bool) (?T1 Bool) (?U1 Bool) (?V1 Bool) (?W1 Bool) (?X1 Bool) (?Y1 Bool) (?Z1 Bool) (?A2 Bool) (?B2 Bool) (?C2 Bool) (?D2 Bool) (?E2 Bool) (?F2 Bool) (?G2 Bool) (?H2 Bool) (?I2 Bool) (?J2 Bool) (?K2 Bool) (?L2 Bool) (?M2 Bool) (?N2 Bool) (?O2 Bool) (?P2 Bool) (?Q2 Bool) (?R2 Bool) (?S2 Bool) (?T2 Bool) (?U2 Bool) (?V2 Bool) (?W2 Bool) (?X2 Bool) (?Y2 Bool) (?Z2 Bool) (?A3 Bool) (?B3 Bool) (?C3 Bool) (?D3 Bool) (?E3 Bool) (?F3 Bool) (?G3 Bool) (?H3 Bool) (?I3 Bool) (?J3 Bool) (?K3 Bool) (?L3 Bool) (?M3 Bool) (?N3 Bool) (?O3 Bool) (?P3 Bool) (?Q3 Bool) (?R3 Bool) (?S3 Bool) (?T3 Real) (?U3 Real) (?V3 Real) (?W3 Real) (?X3 Real) (?Y3 Real) (?Z3 Real) (?A4 Real) (?B4 Real) (?C4 Real) (?D4 Real) (?E4 Real) (?F4 Real) (?G4 Bool) (?H4 Bool) (?I4 Bool) (?J4 Bool) (?K4 Bool) (?L4 Bool) (?M4 Bool) (?N4 Bool) (?O4 Bool) (?P4 Bool) (?Q4 Bool) (?R4 Bool) (?S4 Bool) (?T4 Bool) (?U4 Bool) (?V4 Bool) (?W4 Bool) (?X4 Bool) (?Y4 Bool) (?Z4 Real) (?A5 Bool) (?B5 Bool) (?C5 Bool) (?D5 Bool) )(let (($x568418 (not ?G4)))
(let (($x306687 (or $x568418 (and ?P3 ?H4 ?S3) (and ?L3 ?I4 (not ?R3)) (and ?U ?J4 ?W))))
(let (($x844932 (or $x568418 (and ?H4 (not ?I4) (not ?J4)) (and ?I4 (not ?H4) (not ?J4)) (and ?J4 (not ?H4) (not ?I4)))))
(let (($x464512 (or (and ?T4 ?W4) (and ?Q4 ?V4) (and ?K4 (not ?P4)) (and ?G4 ?M4))))
(let (($x879520 (= ?C5 (= ?Z4 0.0))))
(let (($x575246 (|cp-rel-bb.i| ?A ?B ?C ?D ?E ?F ?G ?H ?I ?J ?K ?L ?M ?N ?O ?P ?Q ?R ?S)))
(let (($x586463 (and $x575246 (= ?D5 (not (= ?R ?Z4))) $x879520 (= ?V4 (or ?B5 ?A5)) (= ?B5 (= ?R 0.0)) (= ?A5 (not (= ?P 2.0))) (= ?Z4 (ite ?Y4 ?N ?O)) (= ?Y4 (= ?O 0.0)) (= ?S4 (= ?M 0.0)) (= ?P4 (= ?F4 ?N)) (= ?M4 (= ?F4 0.0)) (= ?F4 (ite ?X4 ?S 0.0)) (= ?X4 (= ?Q 1.0)) (= ?S3 (= ?E4 0.0)) (= ?R3 (= ?B 0.0)) (= ?N3 (= ?D4 0.0)) (= ?K3 (= ?C 0.0)) (= ?G3 (= ?C4 0.0)) (= ?D3 (= ?D 0.0)) (= ?Z2 (= ?B4 0.0)) (= ?W2 (= ?E 0.0)) (= ?S2 (= ?A4 0.0)) (= ?P2 (= ?F 0.0)) (= ?L2 (= ?Z3 0.0)) (= ?I2 (= ?G 0.0)) (= ?E2 (= ?Y3 0.0)) (= ?B2 (= ?H 0.0)) (= ?X1 (= ?X3 0.0)) (= ?U1 (= ?I 0.0)) (= ?Q1 (= ?W3 0.0)) (= ?N1 (= ?J 0.0)) (= ?J1 (= ?V3 0.0)) (= ?G1 (= ?K 0.0)) (= ?C1 (= ?U3 0.0)) (= ?Z (= ?L 0.0)) (= ?T3 (+ 1.0 ?A)) (= ?W (not (<= ?A 3.0))) $x464512 (or (not ?T4) ?U4) (or (not ?T4) (and ?Q4 ?U4 (not ?V4))) (or (not ?Q4) ?R4) (or (not ?Q4) (and ?N4 ?R4 (not ?S4))) (or (not ?N4) ?O4) (or (not ?N4) (and ?K4 ?O4 ?P4)) (or (not ?K4) ?L4) (or (not ?K4) (and ?G4 ?L4 (not ?M4))) $x844932 $x306687 (or (not ?P3) ?Q3) (or (not ?P3) (and ?L3 ?Q3 ?R3)) (or (not ?L3) (and ?M3 (not ?O3)) (and ?O3 (not ?M3))) (or (not ?L3) (and ?I3 ?M3 ?N3) (and ?E3 ?O3 (not ?K3))) (or (not ?I3) ?J3) (or (not ?I3) (and ?E3 ?J3 ?K3)) (or (not ?E3) (and ?F3 (not ?H3)) (and ?H3 (not ?F3))) (or (not ?E3) (and ?B3 ?F3 ?G3) (and ?X2 ?H3 (not ?D3))) (or (not ?B3) ?C3) (or (not ?B3) (and ?X2 ?C3 ?D3)) (or (not ?X2) (and ?Y2 (not ?A3)) (and ?A3 (not ?Y2))) (or (not ?X2) (and ?U2 ?Y2 ?Z2) (and ?Q2 ?A3 (not ?W2))) (or (not ?U2) ?V2) (or (not ?U2) (and ?Q2 ?V2 ?W2)) (or (not ?Q2) (and ?R2 (not ?T2)) (and ?T2 (not ?R2))) (or (not ?Q2) (and ?N2 ?R2 ?S2) (and ?J2 ?T2 (not ?P2))) (or (not ?N2) ?O2) (or (not ?N2) (and ?J2 ?O2 ?P2)) (or (not ?J2) (and ?K2 (not ?M2)) (and ?M2 (not ?K2))) (or (not ?J2) (and ?G2 ?K2 ?L2) (and ?C2 ?M2 (not ?I2))) (or (not ?G2) ?H2) (or (not ?G2) (and ?C2 ?H2 ?I2)) (or (not ?C2) (and ?D2 (not ?F2)) (and ?F2 (not ?D2))) (or (not ?C2) (and ?Z1 ?D2 ?E2) (and ?V1 ?F2 (not ?B2))) (or (not ?Z1) ?A2) (or (not ?Z1) (and ?V1 ?A2 ?B2)) (or (not ?V1) (and ?W1 (not ?Y1)) (and ?Y1 (not ?W1))) (or (not ?V1) (and ?S1 ?W1 ?X1) (and ?O1 ?Y1 (not ?U1))) (or (not ?S1) ?T1) (or (not ?S1) (and ?O1 ?T1 ?U1)) (or (not ?O1) (and ?P1 (not ?R1)) (and ?R1 (not ?P1))) (or (not ?O1) (and ?L1 ?P1 ?Q1) (and ?H1 ?R1 (not ?N1))) (or (not ?L1) ?M1) (or (not ?L1) (and ?H1 ?M1 ?N1)) (or (not ?H1) (and ?I1 (not ?K1)) (and ?K1 (not ?I1))) (or (not ?H1) (and ?E1 ?I1 ?J1) (and ?A1 ?K1 (not ?G1))) (or (not ?E1) ?F1) (or (not ?E1) (and ?A1 ?F1 ?G1)) (or (not ?A1) (and ?B1 (not ?D1)) (and ?D1 (not ?B1))) (or (not ?A1) (and ?X ?B1 ?C1) (and ?T ?D1 (not ?Z))) (or (not ?X) ?Y) (or (not ?X) (and ?T ?Y ?Z)) (or (not ?T) ?V) (or (not ?T) (and ?U ?V (not ?W))) (= ?W4 (or ?D5 ?C5)))))
(=> $x586463 |cp-rel-UnifiedReturnBlock|)))))))))
)
(assert (not cp-rel-UnifiedReturnBlock))
(check-sat)
